(set-logic QF_S)
(declare-fun T_1b () Bool)
(declare-fun T_1c () Bool)
(declare-fun T_SELECT_6 () Bool)
(declare-fun PCTEMP_LHS_7 () Int)
(declare-fun T0_39 () String)
(declare-fun T1_39 () String)
(declare-fun T_19 () String)
(assert (= T_19 (str.++ T0_39 T1_39)))
(assert (not (str.in.re T1_39 (str.to.re "__utmz=169413169."))))
(assert T_1c)
(assert (= T_1c (not T_1b)))
(assert (= T_1b (< (- 1) PCTEMP_LHS_7)))
(assert (= PCTEMP_LHS_7 (- 1)))
(assert (= T_SELECT_6 (not (= PCTEMP_LHS_7 (- 1)))))
(assert (= 0 (str.len T0_39))) ; len 0
(assert (not T_SELECT_6))
(check-sat)
